Tried aggregator 2 times.
MIP Presolve eliminated 2 rows and 1 columns.
MIP Presolve modified 4 coefficients.
Aggregator did 4 substitutions.
Reduced MIP has 27 rows, 27 columns, and 70 nonzeros.
Reduced MIP has 14 binaries, 5 generals, 0 SOSs, and 4 indicators.
Presolve time = 0.00 sec. (0.06 ticks)
Found incumbent of value 4.000000 after 0.00 sec. (0.11 ticks)
Probing fixed 3 vars, tightened 6 bounds.
Probing time = 0.00 sec. (0.02 ticks)
Tried aggregator 2 times.
MIP Presolve eliminated 4 rows and 4 columns.
MIP Presolve modified 12 coefficients.
Aggregator did 7 substitutions.
Reduced MIP has 16 rows, 16 columns, and 48 nonzeros.
Reduced MIP has 8 binaries, 8 generals, 0 SOSs, and 4 indicators.
Presolve time = 0.00 sec. (0.05 ticks)
Probing time = 0.00 sec. (0.01 ticks)
Tried aggregator 1 time.
Reduced MIP has 16 rows, 16 columns, and 48 nonzeros.
Reduced MIP has 8 binaries, 8 generals, 0 SOSs, and 4 indicators.
Presolve time = 0.00 sec. (0.02 ticks)
Probing time = 0.00 sec. (0.01 ticks)
MIP emphasis: balance optimality and feasibility.
MIP search method: dynamic search.
Parallel mode: deterministic, using up to 4 threads.
Root relaxation solution time = 0.00 sec. (0.03 ticks)

        Nodes                                         Cuts/
   Node  Left     Objective  IInf  Best Integer    Best Bound    ItCnt     Gap

*     0+    0                            4.0000        1.0000        6   75.00%
*     0+    0                            3.0000        1.0000        6   66.67%
      0     0        1.0000     4        3.0000        1.0000        6   66.67%
*     0+    0                            2.0000        1.0000        6   50.00%
*     0+    0                            1.0000        1.0000        8    0.00%
      0     0        cutoff              1.0000        1.0000        8    0.00%
Elapsed time = 0.01 sec. (0.35 ticks, tree = 0.00 MB, solutions = 4)

Root node processing (before b&c):
  Real time             =    0.01 sec. (0.35 ticks)
Parallel b&c, 4 threads:
  Real time             =    0.00 sec. (0.00 ticks)
  Sync time (average)   =    0.00 sec.
  Wait time (average)   =    0.00 sec.
                          ------------
Total (root+branch&cut) =    0.01 sec. (0.35 ticks)
